39
171.0 259.0
401.0 410.0
287.0 450.0
548.0 754.0
235.0 596.0
440.0 104.0
53.0 233.0
320.0 252.0
951.0 290.0
851.0 334.0
651.0 295.0
671.0 492.0
167.0 122.0
156.0 440.0
256.0 910.0
588.0 970.0
826.0 607.0
342.0 101.0
365.0 207.0
553.0 176.0
412.0 746.0
246.0 51.0
535.0 847.0
838.0 500.0
489.0 92.0
186.0 13.0
100.0 93.0
442.0 676.0
639.0 200.0
301.0 327.0
793.0 848.0
87.0 73.0
56.0 107.0
409.0 46.0
146.0 978.0
705.0 343.0
741.0 758.0
122.0 194.0
258.0 113.0